(declare-fun d_ack!1675 () (_ BitVec 64))
(declare-fun b_ack!1674 () (_ BitVec 32))
(declare-fun a_ack!1677 () (_ BitVec 64))
(declare-fun c_ack!1676 () (_ BitVec 64))
(declare-fun FPCHECK_FDIV_OVERFLOW
             ((_ FloatingPoint 11 53) (_ FloatingPoint 11 53))
             Bool)
(assert (fp.eq ((_ to_fp 11 53) d_ack!1675) ((_ to_fp 11 53) #x0000000000000000)))
(assert (bvsle #x00000000 b_ack!1674))
(assert (not (bvsle #x00000001 b_ack!1674)))
(assert (fp.eq ((_ to_fp 11 53) a_ack!1677) ((_ to_fp 11 53) #x0000000000000000)))
(assert (let ((a!1 (fp.lt (fp.abs (fp.div roundNearestTiesToEven
                                  ((_ to_fp 11 53) c_ack!1676)
                                  ((_ to_fp 11 53) #x3ff0000000000000)))
                  ((_ to_fp 11 53) #x3cb0000000000000))))
  (not a!1)))
(assert (not (fp.lt ((_ to_fp 11 53) #x401e000000000000)
            (fp.abs ((_ to_fp 11 53) c_ack!1676)))))
(assert (not (fp.gt ((_ to_fp 11 53) #x401e000000000000)
            (fp.abs ((_ to_fp 11 53) c_ack!1676)))))
(assert (FPCHECK_FDIV_OVERFLOW
  (fp.abs ((_ to_fp 11 53) c_ack!1676))
  (fp.abs ((_ to_fp 11 53) c_ack!1676))))

(check-sat)
(exit)
